p edges 160 925
e 1 2
e 1 3
e 1 4
e 1 9
e 1 11
e 1 13
e 1 14
e 1 27
e 1 31
e 1 53
e 1 79
e 2 3
e 2 4
e 2 9
e 2 10
e 2 14
e 2 15
e 2 16
e 2 18
e 2 20
e 2 21
e 2 58
e 2 75
e 2 90
e 2 94
e 2 102
e 3 4
e 3 5
e 3 8
e 3 11
e 3 16
e 3 17
e 3 19
e 3 29
e 3 36
e 3 60
e 4 6
e 4 11
e 4 20
e 4 49
e 4 55
e 4 61
e 4 78
e 4 95
e 5 6
e 5 7
e 5 8
e 5 10
e 5 11
e 5 15
e 5 17
e 5 19
e 5 51
e 5 76
e 5 105
e 5 116
e 6 7
e 6 8
e 6 12
e 6 13
e 6 17
e 6 18
e 6 20
e 6 37
e 6 77
e 6 91
e 6 106
e 7 8
e 7 12
e 7 13
e 7 17
e 7 18
e 7 21
e 7 62
e 7 70
e 7 96
e 7 107
e 8 12
e 8 16
e 8 19
e 8 21
e 8 45
e 8 65
e 9 10
e 9 11
e 9 12
e 9 13
e 9 14
e 9 20
e 9 21
e 9 22
e 9 71
e 10 11
e 10 12
e 10 15
e 10 16
e 10 18
e 10 41
e 10 66
e 10 89
e 11 12
e 11 17
e 11 19
e 11 52
e 11 54
e 11 85
e 12 13
e 12 17
e 12 18
e 12 21
e 12 62
e 12 70
e 12 96
e 12 107
e 13 14
e 13 15
e 13 16
e 13 17
e 13 18
e 13 40
e 13 43
e 14 15
e 14 16
e 14 17
e 14 20
e 14 21
e 14 22
e 14 71
e 15 16
e 15 17
e 15 18
e 15 41
e 15 66
e 15 89
e 16 17
e 16 18
e 16 19
e 16 32
e 16 59
e 16 67
e 17 18
e 17 19
e 17 47
e 17 63
e 17 72
e 17 113
e 17 120
e 18 19
e 18 20
e 18 21
e 18 28
e 18 50
e 18 80
e 18 97
e 19 20
e 19 21
e 19 29
e 19 36
e 19 60
e 20 21
e 20 38
e 20 69
e 21 26
e 21 34
e 21 56
e 21 87
e 21 123
e 22 23
e 22 24
e 22 25
e 22 26
e 22 27
e 22 31
e 22 34
e 22 38
e 22 40
e 22 71
e 23 24
e 23 25
e 23 26
e 23 29
e 23 34
e 23 36
e 23 38
e 23 68
e 23 84
e 24 25
e 24 26
e 24 29
e 24 30
e 24 32
e 24 33
e 24 36
e 24 37
e 24 38
e 24 44
e 24 82
e 25 26
e 25 33
e 25 34
e 25 39
e 25 41
e 25 42
e 25 92
e 25 114
e 25 122
e 26 34
e 26 38
e 26 39
e 26 42
e 26 56
e 26 87
e 26 123
e 27 28
e 27 29
e 27 30
e 27 31
e 27 35
e 27 40
e 27 42
e 27 53
e 27 79
e 28 29
e 28 30
e 28 32
e 28 35
e 28 37
e 28 40
e 28 41
e 28 50
e 28 80
e 28 97
e 29 30
e 29 32
e 29 36
e 29 60
e 30 32
e 30 33
e 30 36
e 30 37
e 30 38
e 30 44
e 30 82
e 31 32
e 31 33
e 31 34
e 31 35
e 31 40
e 31 42
e 31 53
e 31 79
e 32 33
e 32 34
e 32 35
e 32 36
e 32 41
e 32 59
e 32 67
e 33 34
e 33 37
e 33 38
e 33 39
e 33 41
e 33 48
e 33 73
e 33 98
e 34 38
e 34 39
e 34 42
e 34 56
e 34 87
e 34 123
e 35 36
e 35 37
e 35 38
e 35 39
e 35 41
e 35 42
e 35 81
e 35 83
e 36 37
e 36 38
e 36 39
e 36 60
e 37 38
e 37 39
e 37 40
e 37 77
e 37 91
e 37 106
e 38 39
e 38 69
e 39 41
e 39 42
e 39 92
e 39 114
e 39 122
e 40 41
e 40 42
e 40 43
e 41 42
e 41 66
e 41 89
e 42 64
e 42 99
e 43 44
e 43 45
e 43 46
e 43 47
e 43 50
e 43 53
e 43 57
e 43 62
e 44 45
e 44 48
e 44 49
e 44 55
e 44 59
e 44 60
e 44 61
e 44 82
e 45 56
e 45 59
e 45 60
e 45 62
e 45 65
e 46 47
e 46 48
e 46 49
e 46 51
e 46 53
e 46 57
e 46 74
e 47 48
e 47 49
e 47 50
e 47 51
e 47 52
e 47 54
e 47 60
e 47 62
e 47 63
e 47 72
e 47 113
e 47 120
e 48 49
e 48 51
e 48 55
e 48 57
e 48 61
e 48 73
e 48 98
e 49 52
e 49 53
e 49 54
e 49 55
e 49 61
e 49 78
e 49 95
e 50 51
e 50 52
e 50 58
e 50 59
e 50 62
e 50 80
e 50 97
e 51 52
e 51 54
e 51 57
e 51 60
e 51 76
e 51 105
e 51 116
e 52 53
e 52 54
e 52 55
e 52 60
e 52 61
e 52 85
e 53 54
e 53 55
e 53 56
e 53 57
e 53 61
e 53 79
e 54 55
e 54 56
e 54 60
e 54 61
e 54 85
e 55 56
e 55 61
e 55 78
e 55 95
e 56 58
e 56 62
e 56 87
e 56 123
e 57 58
e 57 59
e 57 60
e 57 61
e 57 62
e 57 74
e 58 59
e 58 60
e 58 61
e 58 62
e 58 75
e 58 90
e 58 94
e 58 102
e 59 60
e 59 61
e 59 62
e 59 67
e 60 61
e 60 62
e 61 62
e 61 78
e 61 95
e 62 70
e 62 96
e 62 107
e 63 64
e 63 65
e 63 68
e 63 70
e 63 72
e 63 76
e 63 77
e 63 80
e 63 113
e 63 120
e 64 65
e 64 70
e 64 78
e 64 79
e 64 81
e 64 99
e 65 67
e 65 70
e 65 82
e 66 67
e 66 68
e 66 69
e 66 70
e 66 73
e 66 74
e 66 75
e 66 76
e 66 80
e 66 81
e 66 89
e 67 68
e 67 69
e 67 70
e 67 75
e 67 80
e 67 81
e 67 82
e 68 69
e 68 70
e 68 71
e 68 72
e 68 75
e 68 76
e 68 84
e 69 70
e 69 71
e 69 73
e 69 75
e 69 77
e 69 78
e 69 82
e 70 72
e 70 77
e 70 80
e 70 96
e 70 107
e 71 72
e 71 73
e 71 74
e 71 75
e 71 79
e 72 73
e 72 76
e 72 77
e 72 80
e 72 113
e 72 120
e 73 74
e 73 76
e 73 77
e 73 78
e 73 82
e 73 98
e 74 75
e 74 76
e 74 77
e 74 78
e 74 79
e 75 76
e 75 77
e 75 78
e 75 80
e 75 81
e 75 90
e 75 94
e 75 102
e 76 77
e 76 78
e 76 105
e 76 116
e 77 78
e 77 80
e 77 82
e 77 91
e 77 106
e 78 79
e 78 81
e 78 82
e 78 95
e 79 80
e 79 81
e 79 82
e 80 81
e 80 82
e 80 97
e 81 82
e 81 83
e 83 84
e 83 85
e 83 86
e 83 87
e 83 89
e 83 90
e 83 94
e 83 95
e 83 97
e 83 99
e 83 102
e 84 85
e 84 86
e 84 87
e 84 88
e 84 90
e 84 94
e 84 102
e 84 103
e 85 86
e 85 87
e 85 95
e 85 99
e 85 103
e 86 87
e 86 91
e 86 95
e 86 98
e 86 100
e 86 103
e 86 117
e 86 131
e 86 145
e 86 156
e 87 88
e 87 90
e 87 92
e 87 94
e 87 96
e 87 99
e 87 100
e 87 102
e 87 123
e 88 89
e 88 90
e 88 91
e 88 92
e 88 93
e 88 94
e 88 101
e 88 102
e 88 104
e 89 90
e 89 91
e 89 92
e 89 94
e 89 97
e 89 98
e 89 101
e 89 102
e 90 91
e 90 92
e 90 94
e 90 97
e 90 102
e 91 92
e 91 93
e 91 95
e 91 96
e 91 97
e 91 98
e 91 106
e 92 96
e 92 98
e 92 99
e 92 100
e 92 101
e 92 114
e 92 122
e 93 94
e 93 95
e 93 96
e 93 97
e 93 101
e 93 119
e 93 160
e 94 95
e 94 96
e 94 97
e 94 102
e 95 96
e 95 98
e 95 99
e 96 97
e 96 99
e 96 100
e 96 107
e 97 98
e 97 99
e 97 100
e 97 102
e 98 99
e 98 100
e 98 101
e 99 100
e 100 103
e 100 118
e 100 128
e 100 149
e 101 102
e 101 103
e 101 108
e 101 137
e 101 141
e 101 152
e 102 103
e 103 109
e 103 121
e 104 105
e 104 106
e 104 107
e 104 108
e 104 119
e 104 123
e 105 106
e 105 107
e 105 108
e 105 109
e 105 111
e 105 113
e 105 114
e 105 116
e 105 120
e 105 121
e 105 122
e 106 107
e 106 110
e 106 112
e 106 113
e 106 115
e 106 117
e 106 119
e 106 120
e 107 112
e 107 113
e 107 114
e 107 115
e 107 118
e 107 119
e 107 120
e 107 122
e 107 123
e 107 124
e 108 109
e 108 110
e 108 111
e 108 114
e 108 116
e 108 119
e 108 122
e 108 137
e 108 141
e 108 152
e 109 110
e 109 113
e 109 116
e 109 117
e 109 118
e 109 120
e 109 121
e 110 117
e 110 124
e 110 157
e 111 112
e 111 113
e 111 114
e 111 115
e 111 116
e 111 122
e 111 134
e 111 159
e 112 113
e 112 114
e 112 115
e 112 119
e 112 120
e 112 125
e 112 130
e 112 151
e 113 114
e 113 115
e 113 116
e 113 119
e 113 120
e 113 121
e 114 116
e 114 118
e 114 122
e 114 123
e 114 124
e 115 116
e 115 117
e 115 118
e 115 119
e 115 120
e 115 125
e 115 130
e 115 151
e 116 117
e 116 118
e 116 120
e 116 121
e 116 122
e 117 118
e 117 121
e 117 131
e 117 145
e 117 156
e 118 121
e 118 122
e 118 123
e 118 124
e 118 128
e 118 149
e 119 120
e 119 121
e 119 122
e 119 123
e 119 124
e 119 160
e 120 121
e 120 122
e 120 123
e 120 124
e 121 122
e 121 123
e 121 124
e 122 123
e 122 124
e 123 124
e 124 136
e 124 150
e 125 126
e 125 127
e 125 128
e 125 130
e 125 133
e 125 134
e 125 138
e 125 140
e 125 151
e 126 127
e 126 128
e 126 131
e 126 136
e 126 142
e 126 144
e 126 147
e 127 128
e 127 131
e 127 132
e 127 135
e 127 139
e 127 148
e 128 131
e 128 132
e 128 136
e 128 139
e 128 142
e 128 149
e 129 130
e 129 131
e 129 132
e 129 133
e 129 134
e 129 137
e 129 140
e 129 141
e 129 154
e 129 158
e 130 131
e 130 132
e 130 133
e 130 134
e 130 138
e 130 140
e 130 151
e 131 132
e 131 135
e 131 142
e 131 145
e 131 156
e 132 135
e 132 136
e 132 139
e 132 153
e 133 134
e 133 135
e 133 136
e 133 140
e 133 143
e 133 155
e 134 135
e 134 136
e 134 137
e 134 138
e 134 141
e 134 159
e 135 136
e 135 139
e 135 148
e 136 139
e 136 142
e 136 150
e 137 138
e 137 139
e 137 141
e 137 152
e 138 139
e 138 141
e 138 146
e 139 153
e 140 141
e 140 142
e 140 143
e 140 155
e 141 142
e 141 152
e 142 144
e 142 147
e 143 144
e 143 145
e 143 151
e 143 154
e 143 155
e 143 158
e 143 160
e 144 145
e 144 147
e 144 149
e 144 150
e 144 156
e 144 157
e 145 147
e 145 148
e 145 149
e 145 156
e 145 157
e 146 147
e 146 148
e 146 149
e 146 150
e 146 151
e 146 152
e 146 159
e 146 160
e 147 148
e 147 149
e 147 150
e 147 156
e 147 157
e 148 149
e 148 150
e 148 153
e 148 156
e 148 157
e 149 150
e 149 153
e 149 156
e 150 153
e 150 157
e 151 152
e 151 153
e 151 155
e 151 159
e 151 160
e 152 153
e 152 154
e 152 158
e 152 159
e 152 160
e 154 155
e 154 156
e 154 157
e 154 158
e 154 159
e 155 156
e 155 157
e 155 158
e 155 160
e 156 157
e 158 159
e 158 160
e 159 160
w 1 463
w 2 77
w 3 66
w 4 391
w 5 406
w 6 80
w 7 67
w 8 445
w 9 15
w 10 453
w 11 144
w 12 387
w 13 240
w 14 280
w 15 140
w 16 221
w 17 116
w 18 107
w 19 266
w 20 527
w 21 98
w 22 26
w 23 422
w 24 20
w 25 468
w 26 61
w 27 120
w 28 284
w 29 556
w 30 38
w 31 307
w 32 364
w 33 305
w 34 22
w 35 233
w 36 20
w 37 170
w 38 466
w 39 108
w 40 545
w 41 116
w 42 337
w 43 214
w 44 508
w 45 277
w 46 499
w 47 186
w 48 177
w 49 135
w 50 491
w 51 66
w 52 441
w 53 29
w 54 214
w 55 139
w 56 616
w 57 256
w 58 383
w 59 124
w 60 90
w 61 38
w 62 106
w 63 286
w 64 436
w 65 277
w 66 161
w 67 289
w 68 256
w 69 6
w 70 286
w 71 677
w 72 92
w 73 229
w 74 244
w 75 60
w 76 364
w 77 281
w 78 49
w 79 78
w 80 52
w 81 435
w 82 433
w 83 330
w 84 321
w 85 199
w 86 97
w 87 51
w 88 149
w 89 127
w 90 167
w 91 371
w 92 184
w 93 450
w 94 190
w 95 244
w 96 114
w 97 63
w 98 287
w 99 225
w 100 423
w 101 400
w 102 119
w 103 479
w 104 850
w 105 15
w 106 97
w 107 36
w 108 21
w 109 258
w 110 720
w 111 578
w 112 48
w 113 163
w 114 210
w 115 373
w 116 147
w 117 182
w 118 296
w 119 128
w 120 153
w 121 261
w 122 27
w 123 149
w 124 279
w 125 177
w 126 120
w 127 437
w 128 264
w 129 421
w 130 243
w 131 235
w 132 99
w 133 93
w 134 78
w 135 327
w 136 499
w 137 364
w 138 500
w 139 135
w 140 484
w 141 135
w 142 379
w 143 187
w 144 471
w 145 341
w 146 500
w 147 28
w 148 235
w 149 15
w 150 220
w 151 157
w 152 78
w 153 764
w 154 343
w 155 233
w 156 143
w 157 279
w 158 235
w 159 342
w 160 421
n 1 x40612
n 2 x30712
n 3 x50812
n 4 x40912
n 5 x10822
n 6 x20922
n 7 x21022
n 8 x51022
n 9 x30632
n 10 x10732
n 11 x40832
n 12 x21032
n 13 x20642
n 14 x30642
n 15 x10742
n 16 x50742
n 17 x20842
n 18 x20752
n 19 x50852
n 20 x30952
n 21 x31052
n 22 x30613
n 23 x30813
n 24 x50913
n 25 x11013
n 26 x31013
n 27 x40623
n 28 x20723
n 29 x50823
n 30 x50923
n 31 x40633
n 32 x50733
n 33 x10933
n 34 x31033
n 35 x40743
n 36 x50843
n 37 x20943
n 38 x30943
n 39 x11043
n 40 x20653
n 41 x10753
n 42 x41053
n 43 x20614
n 44 x50914
n 45 x51014
n 46 x10624
n 47 x20824
n 48 x10924
n 49 x40924
n 50 x20734
n 51 x10834
n 52 x40834
n 53 x40644
n 54 x40844
n 55 x40944
n 56 x31044
n 57 x10654
n 58 x30754
n 59 x50754
n 60 x50854
n 61 x40954
n 62 x21054
n 63 x20815
n 64 x41015
n 65 x51015
n 66 x10725
n 67 x50725
n 68 x30825
n 69 x30925
n 70 x21025
n 71 x30635
n 72 x20835
n 73 x10935
n 74 x10645
n 75 x30745
n 76 x10845
n 77 x20945
n 78 x40945
n 79 x40655
n 80 x20755
n 81 x40755
n 82 x50955
n 83 x40716
n 84 x30816
n 85 x40816
n 86 x60916
n 87 x31016
n 88 x30526
n 89 x10726
n 90 x30726
n 91 x20926
n 92 x11026
n 93 x20536
n 94 x30736
n 95 x40936
n 96 x21036
n 97 x20746
n 98 x10946
n 99 x41046
n 100 x61046
n 101 x10556
n 102 x30756
n 103 x60856
n 104 x30517
n 105 x10817
n 106 x20917
n 107 x21017
n 108 x10527
n 109 x60827
n 110 x70927
n 111 x10437
n 112 x20437
n 113 x20837
n 114 x11037
n 115 x20447
n 116 x10847
n 117 x60947
n 118 x61047
n 119 x20557
n 120 x20857
n 121 x60857
n 122 x11057
n 123 x31057
n 124 x71057
n 125 x20418
n 126 x60718
n 127 x80918
n 128 x61018
n 129 x10328
n 130 x20428
n 131 x60928
n 132 x81028
n 133 x20338
n 134 x10438
n 135 x80938
n 136 x71038
n 137 x10548
n 138 x40548
n 139 x81048
n 140 x20358
n 141 x10558
n 142 x60758
n 143 x20319
n 144 x60719
n 145 x60919
n 146 x40529
n 147 x60729
n 148 x80929
n 149 x61029
n 150 x71029
n 151 x20439
n 152 x10539
n 153 x81039
n 154 x10349
n 155 x20349
n 156 x60949
n 157 x70949
n 158 x10359
n 159 x10459
n 160 x20559
o 1 239
o 2 243
o 3 251
o 4 257
o 5 292
o 6 300
o 7 308
o 8 311
o 9 328
o 10 331
o 11 340
o 12 353
o 13 372
o 14 373
o 15 376
o 16 380
o 17 383
o 18 422
o 19 431
o 20 436
o 21 444
o 22 463
o 23 474
o 24 483
o 25 487
o 26 489
o 27 509
o 28 512
o 29 521
o 30 528
o 31 554
o 32 560
o 33 569
o 34 579
o 35 604
o 36 611
o 37 615
o 38 616
o 39 622
o 40 642
o 41 646
o 42 670
o 43 687
o 44 708
o 45 716
o 46 731
o 47 743
o 48 749
o 49 752
o 50 782
o 51 787
o 52 790
o 53 824
o 54 835
o 55 842
o 56 849
o 57 866
o 58 873
o 59 875
o 60 881
o 61 887
o 62 893
o 63 923
o 64 940
o 65 941
o 66 961
o 67 965
o 68 969
o 69 976
o 70 983
o 71 1003
o 72 1013
o 73 1019
o 74 1046
o 75 1053
o 76 1057
o 77 1065
o 78 1067
o 79 1094
o 80 1097
o 81 1099
o 82 1113
o 83 1144
o 84 1149
o 85 1150
o 86 1159
o 87 1164
o 88 1179
o 89 1186
o 90 1188
o 91 1200
o 92 1207
o 93 1223
o 94 1233
o 95 1247
o 96 1253
o 97 1277
o 98 1289
o 99 1300
o 100 1302
o 101 1312
o 102 1323
o 103 1332
o 104 1359
o 105 1372
o 106 1380
o 107 1388
o 108 1402
o 109 1422
o 110 1430
o 111 1444
o 112 1445
o 113 1463
o 114 1477
o 115 1490
o 116 1507
o 117 1519
o 118 1527
o 119 1538
o 120 1553
o 121 1557
o 122 1567
o 123 1569
o 124 1573
o 125 1580
o 126 1596
o 127 1611
o 128 1617
o 129 1622
o 130 1625
o 131 1654
o 132 1664
o 133 1668
o 134 1669
o 135 1701
o 136 1708
o 137 1717
o 138 1720
o 139 1754
o 140 1758
o 141 1762
o 142 1776
o 143 1803
o 144 1821
o 145 1834
o 146 1855
o 147 1866
o 148 1881
o 149 1887
o 150 1888
o 151 1895
o 152 1897
o 153 1934
o 154 1937
o 155 1938
o 156 1969
o 157 1970
o 158 1982
o 159 1984
o 160 1988
